(set-logic ALL)
; rows (m) = 100
; cols (n) = 25
(declare-const D (Array Int (Array Int Int)))
(define-fun m () Int 100)
(define-fun n () Int 25)

; ----- Int version of row25 (NO ellipses) -----
(define-fun row25 ((x0 Int) (x1 Int) (x2 Int) (x3 Int) (x4 Int)
                   (x5 Int) (x6 Int) (x7 Int) (x8 Int) (x9 Int)
                   (x10 Int) (x11 Int) (x12 Int) (x13 Int) (x14 Int)
                   (x15 Int) (x16 Int) (x17 Int) (x18 Int) (x19 Int)
                   (x20 Int) (x21 Int) (x22 Int) (x23 Int) (x24 Int))
  (Array Int Int)(store(store(store(store(store(store(store(store(store(store(store(store(store(store(store(store(store(store(store(store(store(store(store(store
                          (store ((as const (Array Int Int)) 0) 0 x0)
                                1 x1)2 x2)3 x3)4 x4)5 x5)6 x6)7 x7)8 x8)9 x9)10 x10)11 x11)12 x12)13 x13)14 x14)15 x15)16 x16)17 x17)18 x18)19 x19)20 x20)21 x21)22 x22)23 x23)24 x24)
)
; ---- First 100 rows ----
(assert (= (select D 0) (row25 1 6 4 12 5 5 3 4 1 67 3 2 1 2 1 0 0 1 0 0 1 0 0 1 1)))
(assert (= (select D 1) (row25 2 48 2 60 1 3 2 2 1 22 3 1 1 1 1 0 0 1 0 0 1 0 0 1 2)))

(assert (= (select D 2) (row25 4 12 4 21 1 4 3 3 1 49 3 1 2 1 1 0 0 1 0 0 1 0 1 0 1)))
(assert (= (select D 3) (row25 1 42 2 79 1 4 3 4 2 45 3 1 2 1 1 0 0 0 0 0 0 0 0 1 1)))
(assert (= (select D 4) (row25 1 24 3 49 1 3 3 4 4 53 3 2 2 1 1 1 0 1 0 0 0 0 0 1 2)))
(assert (= (select D 5) (row25 4 36 2 91 5 3 3 4 4 35 3 1 2 2 1 0 0 1 0 0 0 0 1 0 1)))
(assert (= (select D 6) (row25 4 24 2 28 3 5 3 4 2 53 3 1 1 1 1 0 0 1 0 0 1 0 0 1 1)))
(assert (= (select D 7) (row25 2 36 2 69 1 3 3 2 3 35 3 1 1 2 1 0 1 1 0 1 0 0 0 0 1)))
(assert (= (select D 8) (row25 4 12 2 31 4 4 1 4 1 61 3 1 1 1 1 0 0 1 0 0 1 0 1 0 1)))
(assert (= (select D 9) (row25 2 30 4 52 1 1 4 2 3 28 3 2 1 1 1 1 0 1 0 0 1 0 0 0 2)))
(assert (= (select D 10) (row25 2 12 2 13 1 2 2 1 3 25 3 1 1 1 1 1 0 1 0 1 0 0 0 1 2)))
(assert (= (select D 11) (row25 1 48 2 43 1 2 2 4 2 24 3 1 1 1 1 0 0 1 0 1 0 0 0 1 2)))
(assert (= (select D 12) (row25 2 12 2 16 1 3 2 1 3 22 3 1 1 2 1 0 0 1 0 0 1 0 0 1 1)))
(assert (= (select D 13) (row25 1 24 4 12 1 5 3 4 3 60 3 2 1 1 1 1 0 1 0 0 1 0 1 0 2)))
(assert (= (select D 14) (row25 1 15 2 14 1 3 2 4 3 28 3 1 1 1 1 1 0 1 0 1 0 0 0 1 1)))
(assert (= (select D 15) (row25 1 24 2 13 2 3 2 2 3 32 3 1 1 1 1 0 0 1 0 0 1 0 1 0 2)))
(assert (= (select D 16) (row25 4 24 4 24 5 5 3 4 2 53 3 2 1 1 1 0 0 1 0 0 1 0 0 1 1)))
(assert (= (select D 17) (row25 1 30 0 81 5 2 3 3 3 25 1 3 1 1 1 0 0 1 0 0 1 0 0 1 1)))
(assert (= (select D 18) (row25 2 24 2 126 1 5 2 2 4 44 3 1 1 2 1 0 1 1 0 0 0 0 0 0 2)))
(assert (= (select D 19) (row25 4 24 2 34 3 5 3 2 3 31 3 1 2 2 1 0 0 1 0 0 1 0 0 1 1)))
(assert (= (select D 20) (row25 4 9 4 21 1 3 3 4 3 48 3 3 1 2 1 1 0 1 0 0 1 0 0 1 1)))
(assert (= (select D 21) (row25 1 6 2 26 3 3 3 3 1 44 3 1 2 1 1 0 0 1 0 1 0 0 0 1 1)))
(assert (= (select D 22) (row25 1 10 4 22 1 2 3 3 1 48 3 2 2 1 2 1 0 1 0 1 0 0 1 0 1)))
(assert (= (select D 23) (row25 2 12 4 18 2 2 3 4 2 44 3 1 1 1 1 0 1 1 0 0 1 0 0 1 1)))
(assert (= (select D 24) (row25 4 10 4 21 5 3 4 1 3 26 3 2 1 1 2 0 0 1 0 0 1 0 0 1 1)))
(assert (= (select D 25) (row25 1 6 2 14 1 3 3 2 1 36 1 1 1 2 1 0 0 1 0 0 1 0 1 0 1)))
(assert (= (select D 26) (row25 4 6 0 4 1 5 4 4 3 39 3 1 1 1 1 0 0 1 0 0 1 0 1 0 1)))
(assert (= (select D 27) (row25 3 12 1 4 4 3 2 3 1 42 3 2 1 1 1 0 0 1 0 1 0 0 0 1 1)))
(assert (= (select D 28) (row25 2 7 2 24 1 3 3 2 1 34 3 1 1 1 1 0 0 0 0 0 1 0 0 1 1)))
(assert (= (select D 29) (row25 1 60 3 68 1 5 3 4 4 63 3 2 1 2 1 0 0 1 0 0 1 0 0 1 2)))
(assert (= (select D 30) (row25 2 18 2 19 4 2 4 3 1 36 1 1 1 2 1 0 0 1 0 0 1 0 0 1 1)))
(assert (= (select D 31) (row25 1 24 2 40 1 3 3 2 3 27 2 1 1 1 1 0 0 1 0 0 1 0 0 1 1)))
(assert (= (select D 32) (row25 2 18 2 59 2 3 3 2 3 30 3 2 1 2 1 1 0 1 0 0 1 0 0 1 1)))
(assert (= (select D 33) (row25 4 12 4 13 5 5 3 4 4 57 3 1 1 1 1 0 0 1 0 1 0 0 1 0 1)))
(assert (= (select D 34) (row25 3 12 2 15 1 2 2 1 2 33 1 1 1 2 1 0 0 1 0 0 1 0 0 0 1)))
(assert (= (select D 35) (row25 2 45 4 47 1 2 3 2 2 25 3 2 1 1 1 0 0 1 0 0 1 0 1 0 2)))
(assert (= (select D 36) (row25 4 48 4 61 1 3 3 3 4 31 1 1 1 2 1 0 0 1 0 0 0 0 0 1 1)))
(assert (= (select D 37) (row25 3 18 2 21 1 3 3 2 1 37 2 1 1 1 1 0 0 0 1 0 1 0 0 1 2)))
(assert (= (select D 38) (row25 3 10 2 12 1 3 3 2 3 37 3 1 1 2 1 0 0 1 0 0 1 0 0 1 1)))
(assert (= (select D 39) (row25 2 9 2 5 1 3 3 3 1 24 3 1 1 1 1 0 0 1 0 0 1 0 0 1 1)))
(assert (= (select D 40) (row25 4 30 2 23 3 5 3 2 3 30 1 1 1 1 1 0 0 1 0 0 1 0 0 0 1)))
(assert (= (select D 41) (row25 2 12 2 12 3 3 1 1 3 26 3 1 1 2 1 0 0 1 0 0 1 0 0 1 1)))
(assert (= (select D 42) (row25 2 18 3 62 1 3 3 4 1 44 3 1 2 2 1 0 0 1 0 0 1 0 1 0 1)))
(assert (= (select D 43) (row25 1 30 4 62 2 4 4 4 3 24 3 2 1 1 1 0 1 1 0 1 0 0 0 1 1)))
(assert (= (select D 44) (row25 1 48 4 61 1 5 2 4 4 58 2 2 1 1 1 0 1 1 0 0 0 0 1 0 2)))
(assert (= (select D 45) (row25 4 11 4 14 1 2 2 4 3 35 3 2 1 1 1 1 0 1 0 0 1 0 0 0 1)))
(assert (= (select D 46) (row25 4 36 2 23 3 5 3 4 3 39 3 1 1 1 1 0 0 1 0 0 1 0 0 1 1)))
(assert (= (select D 47) (row25 1 6 2 14 3 1 2 2 2 23 3 1 1 2 1 0 1 1 0 1 0 1 0 0 1)))
(assert (= (select D 48) (row25 4 11 4 72 1 3 3 4 2 39 3 2 1 1 1 1 0 1 0 0 1 0 1 0 1)))
(assert (= (select D 49) (row25 4 12 2 21 2 3 2 2 1 28 3 1 1 1 1 0 0 0 1 0 1 0 0 1 1)))
(assert (= (select D 50) (row25 2 24 3 23 5 2 3 2 2 29 1 1 1 1 1 0 0 1 0 0 1 0 1 0 1)))
(assert (= (select D 51) (row25 2 27 3 60 1 5 3 2 3 30 3 2 1 2 1 0 1 1 0 0 1 0 0 0 1)))
(assert (= (select D 52) (row25 4 12 2 13 1 3 3 2 3 25 3 1 1 1 1 0 0 1 0 0 1 0 0 1 1)))
(assert (= (select D 53) (row25 4 18 2 34 5 3 3 1 2 31 3 1 1 2 1 0 1 1 0 0 1 0 0 1 1)))
(assert (= (select D 54) (row25 2 36 3 22 1 5 3 4 4 57 1 2 1 2 1 1 0 1 0 0 0 0 0 1 2)))
(assert (= (select D 55) (row25 4 6 1 8 5 3 3 2 1 26 2 1 2 1 1 1 0 0 0 0 1 0 1 0 1)))
(assert (= (select D 56) (row25 2 12 2 65 5 1 3 1 4 52 3 1 1 2 1 0 0 1 0 0 1 0 0 0 2)))
(assert (= (select D 57) (row25 4 36 4 96 1 3 2 2 3 31 2 2 1 1 1 0 0 1 0 0 1 0 0 1 1)))
(assert (= (select D 58) (row25 3 18 2 20 1 5 2 2 3 23 3 1 1 1 1 1 0 1 0 0 1 0 0 0 1)))
(assert (= (select D 59) (row25 1 36 4 62 1 2 2 4 4 23 3 2 1 2 1 0 0 0 1 1 0 0 1 0 2)))
(assert (= (select D 60) (row25 2 9 2 14 1 3 4 1 1 27 1 1 1 2 1 0 0 1 0 0 1 0 0 1 1)))
(assert (= (select D 61) (row25 2 15 4 15 5 5 3 4 1 50 3 2 1 2 1 0 0 0 0 0 1 0 0 1 1)))
(assert (= (select D 62) (row25 2 36 0 20 1 5 3 4 4 61 3 1 1 2 1 0 0 1 0 0 0 0 0 0 2)))
(assert (= (select D 63) (row25 2 48 0 144 1 3 3 2 3 25 3 1 1 2 1 0 0 1 0 0 1 0 0 1 2)))
(assert (= (select D 64) (row25 4 24 2 32 1 2 2 4 2 26 3 1 1 2 1 0 0 1 0 0 1 0 0 1 1)))
(assert (= (select D 65) (row25 4 27 2 52 5 5 3 4 2 48 3 4 2 2 1 0 0 1 0 0 1 0 0 1 1)))
(assert (= (select D 66) (row25 4 12 2 22 1 2 2 2 3 29 1 1 1 1 1 0 0 1 0 0 1 0 0 1 1)))
(assert (= (select D 67) (row25 2 12 2 10 4 3 4 1 1 22 3 1 1 1 1 1 0 1 0 0 1 0 0 1 1)))
(assert (= (select D 68) (row25 4 36 2 18 1 3 3 4 4 37 2 1 1 2 1 0 0 1 0 0 0 0 0 1 2)))
(assert (= (select D 69) (row25 4 36 2 24 5 3 2 4 3 25 3 1 1 1 1 0 0 1 0 0 1 0 0 1 1)))
(assert (= (select D 70) (row25 4 36 2 81 1 3 2 2 2 30 1 1 1 1 1 0 1 1 0 0 1 0 0 1 1)))
(assert (= (select D 71) (row25 4 7 4 7 5 5 3 2 2 46 3 2 1 2 1 0 0 1 0 1 0 0 1 0 1)))
(assert (= (select D 72) (row25 1 8 4 12 1 5 3 4 4 51 1 2 2 2 1 0 0 1 0 0 0 0 0 0 1)))
(assert (= (select D 73) (row25 2 42 4 60 1 4 2 1 1 41 1 2 1 1 1 0 0 1 0 0 1 0 1 0 1)))
(assert (= (select D 74) (row25 1 36 2 20 5 5 3 4 4 40 3 1 1 2 1 0 0 1 0 0 1 0 0 0 2)))
(assert (= (select D 75) (row25 1 12 4 15 1 5 3 4 4 66 3 2 1 1 1 0 1 1 0 0 0 0 0 0 1)))
(assert (= (select D 76) (row25 1 42 2 40 1 2 3 3 3 34 3 1 1 1 1 0 0 1 0 0 1 0 0 1 2)))
(assert (= (select D 77) (row25 2 11 3 48 1 4 3 4 2 51 3 1 1 1 1 0 0 1 0 0 1 0 0 1 1)))
(assert (= (select D 78) (row25 4 54 0 94 5 3 3 2 2 39 3 1 2 1 1 0 1 1 0 0 1 0 1 0 1)))
(assert (= (select D 79) (row25 2 30 2 38 1 2 4 1 2 22 3 1 1 1 1 0 0 1 0 0 1 0 0 1 1)))
(assert (= (select D 80) (row25 4 24 2 59 5 2 2 1 3 44 3 2 1 2 1 0 0 1 0 0 1 0 0 1 2)))
(assert (= (select D 81) (row25 4 15 2 12 3 5 3 3 2 47 2 1 1 2 1 0 0 1 0 0 1 0 0 1 1)))
(assert (= (select D 82) (row25 4 18 2 16 2 3 2 4 2 24 3 1 1 1 1 0 0 1 0 1 0 0 1 0 1)))
(assert (= (select D 83) (row25 1 24 2 18 1 5 2 4 1 58 3 1 1 2 1 0 0 0 0 0 1 0 1 0 1)))
(assert (= (select D 84) (row25 1 10 2 23 1 5 3 4 1 52 3 1 1 1 1 0 0 1 0 0 1 0 1 0 1)))
(assert (= (select D 85) (row25 4 12 4 14 1 3 2 2 1 29 3 2 1 2 1 0 0 0 0 0 1 0 0 0 1)))
(assert (= (select D 86) (row25 2 18 4 13 1 2 2 1 2 27 3 2 1 1 1 0 0 1 0 0 1 0 0 1 1)))
(assert (= (select D 87) (row25 2 36 2 126 2 3 3 4 4 47 3 1 2 2 1 0 0 1 0 0 0 0 0 1 2)))
(assert (= (select D 88) (row25 1 18 2 22 2 4 3 3 3 30 3 1 2 2 1 1 0 1 0 0 1 0 0 0 1)))
(assert (= (select D 89) (row25 1 12 0 11 1 4 3 3 1 28 3 2 1 1 1 0 0 1 0 0 1 0 0 1 2)))
(assert (= (select D 90) (row25 4 12 4 6 1 5 3 4 1 56 3 1 1 1 1 0 0 1 0 0 1 0 0 1 1)))
(assert (= (select D 91) (row25 1 12 4 14 1 5 3 3 1 54 3 1 1 1 1 0 1 1 0 0 1 0 0 1 1)))
(assert (= (select D 92) (row25 4 12 4 8 5 5 2 3 2 33 1 1 2 1 1 0 0 1 0 0 1 0 1 0 2)))
(assert (= (select D 93) (row25 3 24 4 36 5 5 3 4 4 20 3 2 1 1 1 0 0 0 1 1 0 0 0 1 1)))
(assert (= (select D 94) (row25 2 12 2 13 4 5 3 4 1 54 3 1 1 2 1 1 0 1 0 0 1 0 0 1 1)))
(assert (= (select D 95) (row25 2 54 0 159 1 2 3 4 4 58 3 1 1 2 1 0 0 1 0 1 0 0 0 1 2)))
(assert (= (select D 96) (row25 4 12 4 20 5 4 2 2 3 61 3 1 1 1 1 0 0 1 0 0 1 0 0 1 1)))
(assert (= (select D 97) (row25 2 18 2 26 2 3 3 4 3 34 3 1 1 1 1 0 0 1 0 0 1 0 0 1 1)))
(assert (= (select D 98) (row25 2 36 4 23 1 5 3 4 1 36 3 1 1 1 1 0 0 1 0 0 1 0 0 1 1)))
(assert (= (select D 99) (row25 2 20 3 71 5 4 3 4 2 36 1 2 2 2 1 0 1 1 0 1 0 0 0 0 1)))




; ===== auxiliary lemma: local range validity (duration) =====

(define-fun duration_min () Int 0)
(define-fun duration_max () Int 600)

(assert
  (and
    (and (>= (select (select D 0) 1) duration_min) (<  (select (select D 0) 1) duration_max))
    (and (>= (select (select D 1) 1) duration_min) (<  (select (select D 1) 1) duration_max))
    (and (>= (select (select D 2) 1) duration_min) (<  (select (select D 2) 1) duration_max))
    (and (>= (select (select D 3) 1) duration_min) (<  (select (select D 3) 1) duration_max))
    (and (>= (select (select D 4) 1) duration_min) (<  (select (select D 4) 1) duration_max))
    (and (>= (select (select D 5) 1) duration_min) (<  (select (select D 5) 1) duration_max))
    (and (>= (select (select D 6) 1) duration_min) (<  (select (select D 6) 1) duration_max))
    (and (>= (select (select D 7) 1) duration_min) (<  (select (select D 7) 1) duration_max))
    (and (>= (select (select D 8) 1) duration_min) (<  (select (select D 8) 1) duration_max))
    (and (>= (select (select D 9) 1) duration_min) (<  (select (select D 9) 1) duration_max))
    (and (>= (select (select D 10) 1) duration_min) (<  (select (select D 10) 1) duration_max))
    (and (>= (select (select D 11) 1) duration_min) (<  (select (select D 11) 1) duration_max))
    (and (>= (select (select D 12) 1) duration_min) (<  (select (select D 12) 1) duration_max))
    (and (>= (select (select D 13) 1) duration_min) (<  (select (select D 13) 1) duration_max))
    (and (>= (select (select D 14) 1) duration_min) (<  (select (select D 14) 1) duration_max))
    (and (>= (select (select D 15) 1) duration_min) (<  (select (select D 15) 1) duration_max))
    (and (>= (select (select D 16) 1) duration_min) (<  (select (select D 16) 1) duration_max))
    (and (>= (select (select D 17) 1) duration_min) (<  (select (select D 17) 1) duration_max))
    (and (>= (select (select D 18) 1) duration_min) (<  (select (select D 18) 1) duration_max))
    (and (>= (select (select D 19) 1) duration_min) (<  (select (select D 19) 1) duration_max))
    (and (>= (select (select D 20) 1) duration_min) (<  (select (select D 20) 1) duration_max))
    (and (>= (select (select D 21) 1) duration_min) (<  (select (select D 21) 1) duration_max))
    (and (>= (select (select D 22) 1) duration_min) (<  (select (select D 22) 1) duration_max))
    (and (>= (select (select D 23) 1) duration_min) (<  (select (select D 23) 1) duration_max))
    (and (>= (select (select D 24) 1) duration_min) (<  (select (select D 24) 1) duration_max))
    (and (>= (select (select D 25) 1) duration_min) (<  (select (select D 25) 1) duration_max))
    (and (>= (select (select D 26) 1) duration_min) (<  (select (select D 26) 1) duration_max))
    (and (>= (select (select D 27) 1) duration_min) (<  (select (select D 27) 1) duration_max))
    (and (>= (select (select D 28) 1) duration_min) (<  (select (select D 28) 1) duration_max))
    (and (>= (select (select D 29) 1) duration_min) (<  (select (select D 29) 1) duration_max))
    (and (>= (select (select D 30) 1) duration_min) (<  (select (select D 30) 1) duration_max))
    (and (>= (select (select D 31) 1) duration_min) (<  (select (select D 31) 1) duration_max))
    (and (>= (select (select D 32) 1) duration_min) (<  (select (select D 32) 1) duration_max))
    (and (>= (select (select D 33) 1) duration_min) (<  (select (select D 33) 1) duration_max))
    (and (>= (select (select D 34) 1) duration_min) (<  (select (select D 34) 1) duration_max))
    (and (>= (select (select D 35) 1) duration_min) (<  (select (select D 35) 1) duration_max))
    (and (>= (select (select D 36) 1) duration_min) (<  (select (select D 36) 1) duration_max))
    (and (>= (select (select D 37) 1) duration_min) (<  (select (select D 37) 1) duration_max))
    (and (>= (select (select D 38) 1) duration_min) (<  (select (select D 38) 1) duration_max))
    (and (>= (select (select D 39) 1) duration_min) (<  (select (select D 39) 1) duration_max))
    (and (>= (select (select D 40) 1) duration_min) (<  (select (select D 40) 1) duration_max))
    (and (>= (select (select D 41) 1) duration_min) (<  (select (select D 41) 1) duration_max))
    (and (>= (select (select D 42) 1) duration_min) (<  (select (select D 42) 1) duration_max))
    (and (>= (select (select D 43) 1) duration_min) (<  (select (select D 43) 1) duration_max))
    (and (>= (select (select D 44) 1) duration_min) (<  (select (select D 44) 1) duration_max))
    (and (>= (select (select D 45) 1) duration_min) (<  (select (select D 45) 1) duration_max))
    (and (>= (select (select D 46) 1) duration_min) (<  (select (select D 46) 1) duration_max))
    (and (>= (select (select D 47) 1) duration_min) (<  (select (select D 47) 1) duration_max))
    (and (>= (select (select D 48) 1) duration_min) (<  (select (select D 48) 1) duration_max))
    (and (>= (select (select D 49) 1) duration_min) (<  (select (select D 49) 1) duration_max))
    (and (>= (select (select D 50) 1) duration_min) (<  (select (select D 50) 1) duration_max))
    (and (>= (select (select D 51) 1) duration_min) (<  (select (select D 51) 1) duration_max))
    (and (>= (select (select D 52) 1) duration_min) (<  (select (select D 52) 1) duration_max))
    (and (>= (select (select D 53) 1) duration_min) (<  (select (select D 53) 1) duration_max))
    (and (>= (select (select D 54) 1) duration_min) (<  (select (select D 54) 1) duration_max))
    (and (>= (select (select D 55) 1) duration_min) (<  (select (select D 55) 1) duration_max))
    (and (>= (select (select D 56) 1) duration_min) (<  (select (select D 56) 1) duration_max))
    (and (>= (select (select D 57) 1) duration_min) (<  (select (select D 57) 1) duration_max))
    (and (>= (select (select D 58) 1) duration_min) (<  (select (select D 58) 1) duration_max))
    (and (>= (select (select D 59) 1) duration_min) (<  (select (select D 59) 1) duration_max))
    (and (>= (select (select D 60) 1) duration_min) (<  (select (select D 60) 1) duration_max))
    (and (>= (select (select D 61) 1) duration_min) (<  (select (select D 61) 1) duration_max))
    (and (>= (select (select D 62) 1) duration_min) (<  (select (select D 62) 1) duration_max))
    (and (>= (select (select D 63) 1) duration_min) (<  (select (select D 63) 1) duration_max))
    (and (>= (select (select D 64) 1) duration_min) (<  (select (select D 64) 1) duration_max))
    (and (>= (select (select D 65) 1) duration_min) (<  (select (select D 65) 1) duration_max))
    (and (>= (select (select D 66) 1) duration_min) (<  (select (select D 66) 1) duration_max))
    (and (>= (select (select D 67) 1) duration_min) (<  (select (select D 67) 1) duration_max))
    (and (>= (select (select D 68) 1) duration_min) (<  (select (select D 68) 1) duration_max))
    (and (>= (select (select D 69) 1) duration_min) (<  (select (select D 69) 1) duration_max))
    (and (>= (select (select D 70) 1) duration_min) (<  (select (select D 70) 1) duration_max))
    (and (>= (select (select D 71) 1) duration_min) (<  (select (select D 71) 1) duration_max))
    (and (>= (select (select D 72) 1) duration_min) (<  (select (select D 72) 1) duration_max))
    (and (>= (select (select D 73) 1) duration_min) (<  (select (select D 73) 1) duration_max))
    (and (>= (select (select D 74) 1) duration_min) (<  (select (select D 74) 1) duration_max))
    (and (>= (select (select D 75) 1) duration_min) (<  (select (select D 75) 1) duration_max))
    (and (>= (select (select D 76) 1) duration_min) (<  (select (select D 76) 1) duration_max))
    (and (>= (select (select D 77) 1) duration_min) (<  (select (select D 77) 1) duration_max))
    (and (>= (select (select D 78) 1) duration_min) (<  (select (select D 78) 1) duration_max))
    (and (>= (select (select D 79) 1) duration_min) (<  (select (select D 79) 1) duration_max))
    (and (>= (select (select D 80) 1) duration_min) (<  (select (select D 80) 1) duration_max))
    (and (>= (select (select D 81) 1) duration_min) (<  (select (select D 81) 1) duration_max))
    (and (>= (select (select D 82) 1) duration_min) (<  (select (select D 82) 1) duration_max))
    (and (>= (select (select D 83) 1) duration_min) (<  (select (select D 83) 1) duration_max))
    (and (>= (select (select D 84) 1) duration_min) (<  (select (select D 84) 1) duration_max))
    (and (>= (select (select D 85) 1) duration_min) (<  (select (select D 85) 1) duration_max))
    (and (>= (select (select D 86) 1) duration_min) (<  (select (select D 86) 1) duration_max))
    (and (>= (select (select D 87) 1) duration_min) (<  (select (select D 87) 1) duration_max))
    (and (>= (select (select D 88) 1) duration_min) (<  (select (select D 88) 1) duration_max))
    (and (>= (select (select D 89) 1) duration_min) (<  (select (select D 89) 1) duration_max))
    (and (>= (select (select D 90) 1) duration_min) (<  (select (select D 90) 1) duration_max))
    (and (>= (select (select D 91) 1) duration_min) (<  (select (select D 91) 1) duration_max))
    (and (>= (select (select D 92) 1) duration_min) (<  (select (select D 92) 1) duration_max))
    (and (>= (select (select D 93) 1) duration_min) (<  (select (select D 93) 1) duration_max))
    (and (>= (select (select D 94) 1) duration_min) (<  (select (select D 94) 1) duration_max))
    (and (>= (select (select D 95) 1) duration_min) (<  (select (select D 95) 1) duration_max))
    (and (>= (select (select D 96) 1) duration_min) (<  (select (select D 96) 1) duration_max))
    (and (>= (select (select D 97) 1) duration_min) (<  (select (select D 97) 1) duration_max))
    (and (>= (select (select D 98) 1) duration_min) (<  (select (select D 98) 1) duration_max))
    (and (>= (select (select D 99) 1) duration_min) (<  (select (select D 99) 1) duration_max))
  )
)

(check-sat)
; =============================================================
